/* CONJUNTOS */

set N:= 1 ;

/* PARAMETROS */

param P:= 100.0 ;

param R:= 20.0 ;

param c1:= 1.0 ;

param c2:= 2.0 ;

param nombre_instancia := "funciona.dat" ;

param : coordx coordy flag prob_ohca:=
1 16359613.596423 19271652.379633 1 0.50
;